NAME: mp8
TYPE: ATSP
DIMENSION: 8
BEST_KNOWN: 
EDGE_WEIGHT_SECTION 
-1 18 78 81 70 72 0 77 
57 -1 19 73 0 6 6 10 
0 21 -1 66 71 72 72 65 
28 93 13 -1 62 0 79 37 
80 94 3 13 -1 95 27 97 
75 77 98 64 47 -1 46 38 
83 33 99 70 16 78 -1 85 
12 60 5 54 48 50 81 -1 
